p cnf 15 44
1 2 3 0
-1 -2 0
-1 -3 0
-2 -3 0
4 5 6 0
-4 -5 0
-4 -6 0
-5 -6 0
7 8 9 0
-7 -8 0
-7 -9 0
-8 -9 0
10 11 12 0
-10 -11 0
-10 -12 0
-11 -12 0
13 14 15 0
-13 -14 0
-13 -15 0
-14 -15 0
-1 -10 0
-2 -11 0
-3 -12 0
-4 -7 0
-5 -8 0
-6 -9 0
4 -13 0
-4 13 0
5 -14 0
-5 14 0
6 -15 0
-6 15 0
7 -10 0
-7 10 0
8 -11 0
-8 11 0
9 -12 0
-9 12 0
-10 -13 0
-11 -14 0
-12 -15 0
1 4 7 10 13 0
2 5 8 11 14 0
3 6 9 12 15 0
